(declare-const y0 Real)
(declare-const y1 Real)
(declare-const y2 Real)
(declare-const y3 Real)
(declare-const y4 Real)
(declare-const y5 Real)
(declare-const y6 Real)
(declare-const y7 Real)
(declare-const y8 Real)
(declare-const y9 Real)
(declare-const y10 Real)
(declare-const y11 Real)
(declare-const y12 Real)
(declare-const y13 Real)
(declare-const y14 Real)
(declare-const y15 Real)
(declare-const y16 Real)
(assert (< y9 (+ y13 y1)))
(assert (< y4 79))
(assert (< y1 y11))
(assert (= (< y0 59) false))
(assert (= y10 99))
(assert (< y14 34))
(assert (< y9 y8))
(assert (< (+ (+ y11 y15) y14) 52))
(assert (= false false))
(check-sat)
